Route 1: 0 53 34 88 21 92 13 90 43 80 51 41 0
Route 2: 0 61 35 70 69 5 24 31 7 46 8 64 100 0
Route 3: 0 63 28 30 40 19 2 50 23 67 59 47 11 0
Route 4: 0 73 54 45 57 27 56 60 71 91 66 9 58 0
Route 5: 0 36 12 39 97 18 95 20 75 22 0
Route 6: 0 1 93 6 76 37 96 81 84 0
Route 7: 0 15 55 99 77 65 42 14 74 38 85 0
Route 8: 0 4 17 16 10 32 82 29 62 86 26 89 98 0
Route 9: 0 79 48 49 52 72 3 94 33 78 44 25 83 0
Route 10: 0 68 87 0
